unsat
(forall ((A (_ BitVec 21))
         (B (_ BitVec 21))
         (C (_ BitVec 21))
         (D (_ BitVec 21))
         (E (_ BitVec 21))
         (F (_ BitVec 21))
         (G (_ BitVec 21))
         (H (_ BitVec 1))
         (I (_ BitVec 1))
         (J (_ BitVec 1))
         (K (_ BitVec 1))
         (L (_ BitVec 21))
         (M (_ BitVec 26))
         (N (_ BitVec 1))
         (O (_ BitVec 21))
         (P (_ BitVec 21))
         (Q (_ BitVec 21))
         (R (_ BitVec 21))
         (S (_ BitVec 21))
         (T (_ BitVec 1))
         (U (_ BitVec 1))
         (V (_ BitVec 9))
         (W (_ BitVec 40))
         (X (_ BitVec 23))
         (Y (_ BitVec 1))
         (Z (_ BitVec 1))
         (A1 (_ BitVec 10))
         (B1 (_ BitVec 21))
         (C1 (_ BitVec 1))
         (D1 (_ BitVec 23))
         (E1 (_ BitVec 21))
         (F1 (_ BitVec 14))
         (G1 (_ BitVec 21))
         (H1 (_ BitVec 1))
         (I1 (_ BitVec 21))
         (J1 (_ BitVec 21))
         (K1 (_ BitVec 21))
         (L1 (_ BitVec 21))
         (M1 (_ BitVec 21))
         (N1 (_ BitVec 21))
         (O1 (_ BitVec 35))
         (P1 (_ BitVec 35))
         (Q1 (_ BitVec 21))
         (R1 (_ BitVec 1))
         (S1 (_ BitVec 1))
         (T1 (_ BitVec 40))
         (U1 (_ BitVec 21))
         (V1 (_ BitVec 21))
         (W1 (_ BitVec 21))
         (X1 (_ BitVec 23))
         (Y1 (_ BitVec 21))
         (Z1 (_ BitVec 14))
         (A2 (_ BitVec 21))
         (B2 (_ BitVec 40))
         (C2 (_ BitVec 14))
         (D2 (_ BitVec 1))
         (E2 (_ BitVec 21))
         (F2 (_ BitVec 13))
         (G2 (_ BitVec 13))
         (H2 (_ BitVec 24))
         (I2 (_ BitVec 24))
         (J2 (_ BitVec 14))
         (K2 (_ BitVec 24))
         (L2 (_ BitVec 1))
         (M2 (_ BitVec 40))
         (N2 (_ BitVec 24))
         (O2 (_ BitVec 1)))
  (! (let ((a!1 (or (not (= ((_ extract 0 0) B1) #b1))
                    (= ((_ extract 0 0) S) #b1)))
           (a!2 (= ((_ extract 30 2)
                     (bvadd (concat #x00 X1) ((_ extract 34 4) O1)))
                   #b00000000000000000000000000000))
           (a!3 ((_ extract 23 4)
                  (bvadd (concat #b000 ((_ extract 22 2) X)) (concat #b0 D1))))
           (a!4 (or ((_ bit2bool 0) A2)
                    (not (= J #b1))
                    (not (= ((_ extract 0 0) Q1) #b1)))))
     (let ((a!5 (and a!1
                     (= ((_ extract 34 6) P1) #b00000000000000000000000000000)
                     (not ((_ bit2bool 0) A1))
                     a!2
                     (not ((_ bit2bool 1) A1))
                     (or (not (= R1 #b0)) (not (= J #b1)))
                     (or (not (= C1 #b1)) (not (= J #b1)))
                     (= a!3 #x00000)
                     a!4
                     (or (not (= R1 #b1))
                         ((_ bit2bool 2) Z1)
                         ((_ bit2bool 13) Z1)
                         (not ((_ bit2bool 2) F1)))
                     (or (not ((_ bit2bool 0) N)) (not (= K #b0))))))
       (= (INV!slice!1 A
                       B
                       C
                       D
                       E
                       F
                       G
                       H
                       I
                       J
                       K
                       L
                       M
                       N
                       O
                       P
                       Q
                       R
                       S
                       T
                       U
                       V
                       W
                       X
                       Y
                       Z
                       A1
                       B1
                       C1
                       D1
                       E1
                       F1
                       G1
                       H1
                       I1
                       J1
                       K1
                       L1
                       M1
                       N1
                       O1
                       P1
                       Q1
                       R1
                       S1
                       T1
                       U1
                       V1
                       W1
                       X1
                       Y1
                       Z1
                       A2
                       B2
                       C2
                       D2
                       E2
                       F2
                       G2
                       H2
                       I2
                       J2
                       K2
                       L2
                       M2
                       N2
                       O2)
          a!5)))
     :weight 0))
